p cnf 20 20
4 2 -20 0
7 9 -16 0
-17 3 8 0
-4 -5 -16 0
19 -8 -3 0
17 13 4 0
-5 17 12 0
-2 -9 -6 0
9 17 -19 0
-13 -16 12 0
9 -16 15 0
5 9 18 0
-19 12 -4 0
-4 1 -13 0
-12 -8 10 0
-12 7 -11 0
17 8 11 0
-12 18 -14 0
-3 -2 -10 0
-10 16 -9 0
